c This is QMaxSAT 2017 based on 14.07
c This is Glucose 3.0
c This is MiniSat 2.2.0
c WARNING: for repeatability, setting FPU to use double precision
c card = mrwto, comp = 0, pmodel = 0, narr = 3, mct = 14, verb = 0
cr firstCPXsol 0 0 0
c top = 80229
c |  Number of variables:    144277                                           |
c |  Number of clauses:      2822553                                          |
c |  Weight of hard clauses: 80229                                            |
c |  Number of soft clauses: 546                                              |
c |  Number of unit soft clauses: 546                                         |
c |  Maximum Cardinality (by unit): 240684       (240684      )               |
c last restart ## conflicts  :  37 18906 
o 2183 | cpuTime 0.419194 s
c Sum of weights = 80228
c A number of soft clauses remained = 182
c MRWTO encoding for Pseudo-Boolean Constraints
c sizeMax=2183
c No.0 Divisor=13	generated by pow1
c No.1 Divisor=13	generated by pow1
c No.2 Divisor=13	generated by pow1
c p0= 13	p1= 13	p2= 13	
c number of digits = 4
c linkingVar[0].size = 13, linkingVar[1].size = 13, linkingVar[2].size = 13, linkingVar[3].size = 1, 
c Pseudo-Boolean Constraints: 4885 variables and 51990 clauses
c Sum of weights = 80228
c A number of soft clauses remained = 182
c MRWTO encoding for Pseudo-Boolean Constraints
c sizeMax=2183
c No.0 Divisor=13	generated by pow1
c No.1 Divisor=13	generated by pow1
c No.2 Divisor=13	generated by pow1
c p0= 13	p1= 13	p2= 13	
c number of digits = 4
c linkingVar[0].size = 13, linkingVar[1].size = 13, linkingVar[2].size = 13, linkingVar[3].size = 1, 
c Pseudo-Boolean Constraints: 4885 variables and 51990 clauses
c Sum of weights = 80228
c A number of soft clauses remained = 182
c MRWTO encoding for Pseudo-Boolean Constraints
c sizeMax=2183
c No.0 Divisor=13	generated by pow1
c No.1 Divisor=13	generated by pow1
c No.2 Divisor=13	generated by pow1
c p0= 13	p1= 13	p2= 13	
c number of digits = 4
c linkingVar[0].size = 13, linkingVar[1].size = 13, linkingVar[2].size = 13, linkingVar[3].size = 1, 
c Pseudo-Boolean Constraints: 4885 variables and 51990 clauses
c last restart ## conflicts  :  51 20278 
o 2134 | cpuTime 0.768425 s
c last restart ## conflicts  :  327 20621 
o 2059 | cpuTime 1.65939 s
c last restart ## conflicts  :  130 20342 
o 1966 | cpuTime 1.79495 s
c last restart ## conflicts  :  268 21281 
o 1931 | cpuTime 3.54702 s
c last restart ## conflicts  :  214 21428 
o 1815 | cpuTime 4.93412 s
c last restart ## conflicts  :  101 21320 
o 1793 | cpuTime 10.1495 s
c last restart ## conflicts  :  399 21018 
o 1784 | cpuTime 16.4206 s
c last restart ## conflicts  :  99 21402 
o 1777 | cpuTime 19.2402 s
c last restart ## conflicts  :  7 21165 
o 1776 | cpuTime 19.2734 s
c last restart ## conflicts  :  45 21715 
o 1770 | cpuTime 32.4827 s
c last restart ## conflicts  :  2601 21626 
o 1767 | cpuTime 37.3899 s
c last restart ## conflicts  :  104 22278 
o 1766 | cpuTime 37.485 s
s OPTIMUM FOUND
cr positiVarArr: [ | 3@1(1->3) | 32@1(3->4) | 54@1(4->12) | 78@1(6->8) | 99@1(8->1) | 160@1(12->6) | 201@2(1->5) | 253@2(5->1) | 394@3(1->2) | 420@3(2->14) | 489@3(7->13) | 514@3(9->10) | 519@3(10->1) | 541@3(11->9) | 571@3(13->11) | 581@3(14->7) | ]
cr the 1-th chain: [ 1->3->4->12->6->8->1 ] (#non-depot=5) {#cumul.=6}
cr the 2-th chain: [ 1->5->1 ] (#non-depot=1) {#cumul.=7}
cr the 3-th chain: [ 1->2->14->7->13->11->9->10->1 ] (#non-depot=7) {#cumul.=14}
c Latest Answer = 0 by 13 loops
c restarts              : 1838
c conflicts             : 280767         (6316 /sec)
c decisions             : 1167256        (0.00 % random) (26256 /sec)
c propagations          : 417719606      (9396238 /sec)
c conflict literals     : 19843536       (27.73 % deleted)
c Memory used           : 343.00 MB
c CPU time              : 44.456 s
